c Result of efficient AIG-to-CNF conversion using package CNF
p cnf 467 1708
-2 3 266 317 0
-2 3 -267 317 0
2 -3 0
2 -317 0
2 -266 267 0
3 403 -16 191 0
3 403 -4 -16 0
-3 -403 0
-3 16 0
-3 4 -191 0
-4 5 10 11 12 0
4 -12 0
4 -5 0
4 -11 0
4 -10 0
-5 412 6 7 8 0
5 -412 0
5 -8 0
5 -7 0
5 -6 0
-6 413 414 0
6 -413 0
6 -414 0
-7 416 417 0
7 -416 0
7 -417 0
-8 415 9 0
8 -415 0
8 -9 0
-9 418 419 420 421 0
9 -421 0
9 -420 0
9 -418 0
9 -419 0
-10 408 409 410 411 0
10 -411 0
10 -410 0
10 -408 0
10 -409 0
-11 404 405 406 407 0
11 -407 0
11 -406 0
11 -404 0
11 -405 0
-12 13 14 0
12 -13 0
12 -14 0
-13 428 429 0
13 -428 0
13 -429 0
-14 422 423 15 0
14 -15 0
14 -423 0
14 -422 0
-15 424 425 426 427 0
15 -427 0
15 -426 0
15 -424 0
15 -425 0
-16 17 185 0
-16 -17 -185 0
16 -17 185 0
16 17 -185 0
-17 18 180 0
17 -18 0
17 -180 0
-18 19 175 0
18 -19 0
18 -175 0
-19 20 170 0
19 -20 0
19 -170 0
-20 21 165 0
20 -21 0
20 -165 0
-21 22 160 0
21 -22 0
21 -160 0
-22 23 155 0
22 -23 0
22 -155 0
-23 24 150 0
23 -24 0
23 -150 0
-24 25 145 0
24 -25 0
24 -145 0
-25 26 140 0
25 -26 0
25 -140 0
-26 27 135 0
26 -27 0
26 -135 0
-27 28 130 0
27 -28 0
27 -130 0
-28 -29 34 0
-28 34 120 125 0
28 -34 0
28 29 -125 0
28 29 -120 0
-29 14 7 30 33 0
29 -33 0
29 -14 0
29 -30 0
29 -7 0
-30 403 31 32 11 0
30 -403 0
30 -11 0
30 -32 0
30 -31 0
-31 408 409 0
31 -408 0
31 -409 0
-32 410 411 412 0
32 -410 0
32 -412 0
32 -411 0
-33 413 414 13 8 0
33 -413 0
33 -8 0
33 -13 0
33 -414 0
-34 -29 35 0
-34 35 115 0
-34 35 -119 0
34 -35 0
34 29 -115 119 0
-35 -36 40 110 0
-35 40 106 110 0
35 -40 0
35 -110 0
35 36 -106 0
-36 13 37 5 38 0
36 -38 0
36 -13 0
36 -5 0
36 -37 0
-37 430 14 0
37 -430 0
37 -14 0
-38 403 404 39 10 0
38 -403 0
38 -10 0
38 -39 0
38 -404 0
-39 405 406 407 0
39 -405 0
39 -407 0
39 -406 0
-40 -36 41 0
-40 41 98 102 0
40 -41 0
40 36 -102 0
40 36 -98 0
-41 -36 42 0
-41 42 90 94 0
41 -42 0
41 36 -94 0
41 36 -90 0
-42 -36 43 0
-42 43 82 86 0
42 -43 0
42 36 -86 0
42 36 -82 0
-43 -36 44 0
-43 44 74 78 0
43 -44 0
43 36 -78 0
43 36 -74 0
-44 -36 45 0
-44 45 66 70 0
44 -45 0
44 36 -70 0
44 36 -66 0
-45 -36 46 0
-45 46 56 61 0
45 -46 0
45 36 -61 0
45 36 -56 0
-46 -36 0
-46 47 49 52 0
46 -47 36 0
46 36 -49 0
46 36 -52 0
47 431 -48 0
-47 -431 0
-47 48 0
48 432 433 434 -466 0
-48 466 0
-48 -434 0
-48 -432 0
-48 -433 0
49 431 -50 0
-49 -431 0
-49 50 0
50 432 -51 0
-50 -432 0
-50 51 0
51 433 -434 -466 0
51 433 434 -465 0
-51 -433 0
-51 -434 466 0
-51 434 465 0
52 431 -53 0
-52 -431 0
-52 53 0
53 432 -54 0
-53 -432 0
-53 54 0
-54 -433 -434 0
-54 433 55 0
-54 -433 466 0
54 433 -55 0
54 -433 434 -466 0
55 434 -464 0
55 -434 -465 0
-55 -434 465 0
-55 434 464 0
56 431 -57 0
-56 -431 0
-56 57 0
57 432 -58 0
-57 -432 0
-57 58 0
58 -433 -59 0
58 433 -60 0
-58 -433 59 0
-58 433 60 0
-59 -434 466 0
-59 434 465 0
59 434 -465 0
59 -434 -466 0
60 434 -463 0
60 -434 -464 0
-60 -434 464 0
-60 434 463 0
61 431 -62 0
-61 -431 0
-61 62 0
-62 432 64 0
-62 -432 63 0
62 -432 -63 0
62 432 -64 0
63 433 434 -466 0
-63 466 0
-63 -434 0
-63 -433 0
64 -433 -55 0
64 433 -65 0
-64 433 65 0
-64 -433 55 0
65 434 -462 0
65 -434 -463 0
-65 -434 463 0
-65 434 462 0
66 431 -67 0
-66 -431 0
-66 67 0
67 -432 -51 0
67 432 -68 0
-67 432 68 0
-67 -432 51 0
68 -433 -60 0
68 433 -69 0
-68 433 69 0
-68 -433 60 0
69 434 -461 0
69 -434 -462 0
-69 -434 462 0
-69 434 461 0
70 431 -71 0
-70 -431 0
-70 71 0
71 -432 -54 0
71 432 -72 0
-71 -432 54 0
-71 432 72 0
72 -433 -65 0
72 433 -73 0
-72 433 73 0
-72 -433 65 0
73 434 -460 0
73 -434 -461 0
-73 -434 461 0
-73 434 460 0
74 431 -75 0
-74 -431 0
-74 75 0
75 -432 -58 0
75 432 -76 0
-75 432 76 0
-75 -432 58 0
76 -433 -69 0
76 433 -77 0
-76 433 77 0
-76 -433 69 0
77 434 -459 0
77 -434 -460 0
-77 -434 460 0
-77 434 459 0
-78 431 79 0
-78 -431 48 0
78 -431 -48 0
78 431 -79 0
79 -432 -64 0
79 432 -80 0
-79 432 80 0
-79 -432 64 0
80 -433 -73 0
80 433 -81 0
-80 433 81 0
-80 -433 73 0
81 434 -458 0
81 -434 -459 0
-81 -434 459 0
-81 434 458 0
82 -431 -50 0
82 431 -83 0
-82 431 83 0
-82 -431 50 0
83 -432 -68 0
83 432 -84 0
-83 432 84 0
-83 -432 68 0
84 -433 -77 0
84 433 -85 0
-84 433 85 0
-84 -433 77 0
85 434 -457 0
85 -434 -458 0
-85 -434 458 0
-85 434 457 0
86 -431 -53 0
86 431 -87 0
-86 431 87 0
-86 -431 53 0
87 -432 -72 0
87 432 -88 0
-87 432 88 0
-87 -432 72 0
88 -433 -81 0
88 433 -89 0
-88 433 89 0
-88 -433 81 0
89 434 -456 0
89 -434 -457 0
-89 -434 457 0
-89 434 456 0
90 -431 -57 0
90 431 -91 0
-90 431 91 0
-90 -431 57 0
91 -432 -76 0
91 432 -92 0
-91 432 92 0
-91 -432 76 0
92 -433 -85 0
92 433 -93 0
-92 433 93 0
-92 -433 85 0
93 434 -455 0
93 -434 -456 0
-93 -434 456 0
-93 434 455 0
94 -431 -62 0
94 431 -95 0
-94 -431 62 0
-94 431 95 0
95 -432 -80 0
95 432 -96 0
-95 432 96 0
-95 -432 80 0
96 -433 -89 0
96 433 -97 0
-96 433 97 0
-96 -433 89 0
97 434 -454 0
97 -434 -455 0
-97 -434 455 0
-97 434 454 0
98 -431 -67 0
98 431 -99 0
-98 431 99 0
-98 -431 67 0
99 -432 -84 0
99 432 -100 0
-99 432 100 0
-99 -432 84 0
100 -433 -93 0
100 433 -101 0
-100 433 101 0
-100 -433 93 0
101 434 -453 0
101 -434 -454 0
-101 -434 454 0
-101 434 453 0
102 -431 -71 0
102 431 -103 0
-102 431 103 0
-102 -431 71 0
103 -432 -88 0
103 432 -104 0
-103 432 104 0
-103 -432 88 0
104 -433 -97 0
104 433 -105 0
-104 433 105 0
-104 -433 97 0
105 434 -452 0
105 -434 -453 0
-105 -434 453 0
-105 434 452 0
106 -431 -75 0
106 431 -107 0
-106 431 107 0
-106 -431 75 0
107 -432 -92 0
107 432 -108 0
-107 432 108 0
-107 -432 92 0
108 -433 -101 0
108 433 -109 0
-108 433 109 0
-108 -433 101 0
109 434 -451 0
109 -434 -452 0
-109 -434 452 0
-109 434 451 0
110 430 29 -111 0
110 -430 -47 29 0
-110 -29 0
-110 430 111 0
-110 -430 47 0
-111 431 112 0
-111 -431 79 0
111 -431 -79 0
111 431 -112 0
112 -432 -96 0
112 432 -113 0
-112 432 113 0
-112 -432 96 0
113 -433 -105 0
113 433 -114 0
-113 433 114 0
-113 -433 105 0
114 434 -450 0
114 -434 -451 0
-114 -434 451 0
-114 434 450 0
115 430 -116 0
115 -430 -49 0
115 430 -431 0
-115 -430 49 0
-115 430 431 116 0
116 -432 -100 0
116 432 -117 0
-116 432 117 0
-116 -432 100 0
117 -433 -109 0
117 433 -118 0
-117 433 118 0
-117 -433 109 0
118 434 -449 0
118 -434 -450 0
-118 -434 450 0
-118 434 449 0
119 -431 83 0
-119 431 0
-119 -83 0
120 -87 -121 0
120 431 -121 0
-120 121 0
-120 -431 87 0
121 430 -122 0
121 -430 -52 0
121 430 -431 0
-121 -430 52 0
-121 430 431 122 0
122 -432 -104 0
122 432 -123 0
-122 432 123 0
-122 -432 104 0
123 -433 -114 0
123 433 -124 0
-123 433 124 0
-123 -433 114 0
124 434 -448 0
124 -434 -449 0
-124 -434 449 0
-124 434 448 0
125 -56 -126 0
125 430 -126 0
-125 126 0
-125 -430 56 0
126 -431 -91 0
126 -430 431 0
126 431 -127 0
-126 -431 91 0
-126 430 431 127 0
127 -432 -108 0
127 432 -128 0
-127 432 128 0
-127 -432 108 0
128 -433 -118 0
128 433 -129 0
-128 433 129 0
-128 -433 118 0
129 434 -447 0
129 -434 -448 0
-129 -434 448 0
-129 434 447 0
130 430 29 -131 0
130 -430 -61 29 0
-130 -29 0
-130 430 131 0
-130 -430 61 0
-131 431 132 0
-131 -431 95 0
131 -431 -95 0
131 431 -132 0
132 -432 -113 0
132 432 -133 0
-132 432 133 0
-132 -432 113 0
133 -433 -124 0
133 433 -134 0
-133 433 134 0
-133 -433 124 0
134 434 -446 0
134 -434 -447 0
-134 -434 447 0
-134 434 446 0
135 430 29 -136 0
135 -430 -66 29 0
-135 -29 0
-135 -430 66 0
-135 430 136 0
136 -431 -99 0
136 431 -137 0
-136 431 137 0
-136 -431 99 0
137 -432 -117 0
137 432 -138 0
-137 432 138 0
-137 -432 117 0
138 -433 -129 0
138 433 -139 0
-138 433 139 0
-138 -433 129 0
139 434 -445 0
139 -434 -446 0
-139 -434 446 0
-139 434 445 0
140 430 29 -141 0
140 -430 -70 29 0
-140 -29 0
-140 -430 70 0
-140 430 141 0
141 -431 -103 0
141 431 -142 0
-141 431 142 0
-141 -431 103 0
142 -432 -123 0
142 432 -143 0
-142 432 143 0
-142 -432 123 0
143 -433 -134 0
143 433 -144 0
-143 433 144 0
-143 -433 134 0
144 434 -444 0
144 -434 -445 0
-144 -434 445 0
-144 434 444 0
145 430 29 -146 0
145 -430 -74 29 0
-145 -29 0
-145 -430 74 0
-145 430 146 0
146 -431 -107 0
146 431 -147 0
-146 431 147 0
-146 -431 107 0
147 -432 -128 0
147 432 -148 0
-147 432 148 0
-147 -432 128 0
148 -433 -139 0
148 433 -149 0
-148 433 149 0
-148 -433 139 0
149 434 -443 0
149 -434 -444 0
-149 -434 444 0
-149 434 443 0
150 -430 -78 29 0
150 430 29 -151 0
-150 -29 0
-150 430 151 0
-150 -430 78 0
-151 -431 112 0
-151 431 152 0
151 -431 -112 0
151 431 -152 0
-152 432 153 0
-152 -432 133 0
152 -432 -133 0
152 432 -153 0
153 -433 -144 0
153 433 -154 0
-153 433 154 0
-153 -433 144 0
154 434 -442 0
154 -434 -443 0
-154 -434 443 0
-154 434 442 0
155 430 29 -156 0
155 -430 -82 29 0
-155 -29 0
-155 430 156 0
-155 -430 82 0
-156 -431 116 0
-156 431 157 0
156 -431 -116 0
156 431 -157 0
-157 432 158 0
-157 -432 138 0
157 -432 -138 0
157 432 -158 0
158 -433 -149 0
158 433 -159 0
-158 433 159 0
-158 -433 149 0
159 434 -441 0
159 -434 -442 0
-159 -434 442 0
-159 434 441 0
160 430 29 -161 0
160 -430 -86 29 0
-160 -29 0
-160 430 161 0
-160 -430 86 0
-161 -431 122 0
-161 431 162 0
161 -431 -122 0
161 431 -162 0
-162 432 163 0
-162 -432 143 0
162 -432 -143 0
162 432 -163 0
163 -433 -154 0
163 433 -164 0
-163 433 164 0
-163 -433 154 0
164 434 -440 0
164 -434 -441 0
-164 -434 441 0
-164 434 440 0
165 430 29 -166 0
165 -430 -90 29 0
-165 -29 0
-165 430 166 0
-165 -430 90 0
-166 -431 127 0
-166 431 167 0
166 -431 -127 0
166 431 -167 0
-167 432 168 0
-167 -432 148 0
167 -432 -148 0
167 432 -168 0
168 -433 -159 0
168 433 -169 0
-168 433 169 0
-168 -433 159 0
169 434 -439 0
169 -434 -440 0
-169 -434 440 0
-169 434 439 0
170 430 29 -171 0
170 -430 -94 29 0
-170 -29 0
-170 430 171 0
-170 -430 94 0
-171 -431 132 0
-171 431 172 0
171 -431 -132 0
171 431 -172 0
-172 -432 153 0
-172 432 173 0
172 -432 -153 0
172 432 -173 0
-173 433 174 0
-173 -433 164 0
173 -433 -164 0
173 433 -174 0
174 434 -438 0
174 -434 -439 0
-174 -434 439 0
-174 434 438 0
175 430 29 -176 0
175 -430 -98 29 0
-175 -29 0
-175 430 176 0
-175 -430 98 0
-176 -431 137 0
-176 431 177 0
176 -431 -137 0
176 431 -177 0
-177 -432 158 0
-177 432 178 0
177 -432 -158 0
177 432 -178 0
-178 433 179 0
-178 -433 169 0
178 -433 -169 0
178 433 -179 0
179 434 -437 0
179 -434 -438 0
-179 -434 438 0
-179 434 437 0
180 430 29 -181 0
180 -430 -102 29 0
-180 -29 0
-180 430 181 0
-180 -430 102 0
-181 -431 142 0
-181 431 182 0
181 -431 -142 0
181 431 -182 0
-182 -432 163 0
-182 432 183 0
182 -432 -163 0
182 432 -183 0
-183 -433 174 0
-183 433 184 0
183 -433 -174 0
183 433 -184 0
-184 -434 437 0
-184 434 436 0
184 434 -436 0
184 -434 -437 0
-185 403 186 0
185 -403 0
185 -186 0
186 -430 -106 4 0
186 430 -187 4 0
-186 -4 0
-186 -430 106 0
-186 430 187 0
187 -431 -147 0
187 431 -188 0
-187 431 188 0
-187 -431 147 0
188 -432 -168 0
188 432 -189 0
-188 432 189 0
-188 -432 168 0
189 -433 -179 0
189 433 -190 0
-189 -433 179 0
-189 433 190 0
-190 -434 436 0
-190 434 435 0
190 434 -435 0
190 -434 -436 0
-191 -430 192 0
-191 430 228 0
191 -430 -192 0
191 430 -228 0
192 431 -193 0
192 -431 -217 0
-192 -431 217 0
-192 431 193 0
193 432 -194 0
193 -432 -212 0
-193 -432 212 0
-193 432 194 0
194 433 -195 0
194 -433 -210 0
-194 -433 210 0
-194 433 195 0
195 -434 -209 0
195 434 -451 196 0
195 434 451 -196 0
-195 -434 209 0
-195 434 -451 -196 0
-195 434 451 196 0
-196 452 197 0
196 -452 0
196 -197 0
-197 453 198 0
197 -453 0
197 -198 0
-198 454 199 0
198 -454 0
198 -199 0
-199 455 200 0
199 -455 0
199 -200 0
-200 456 201 0
200 -456 0
200 -201 0
-201 457 202 0
201 -457 0
201 -202 0
-202 458 203 0
202 -458 0
202 -203 0
-203 459 204 0
203 -459 0
203 -204 0
-204 460 205 0
204 -460 0
204 -205 0
-205 461 206 0
205 -461 0
205 -206 0
-206 462 207 0
206 -462 0
206 -207 0
-207 463 208 0
207 -463 0
207 -208 0
-208 464 465 466 0
208 -464 0
208 -466 0
208 -465 0
209 -452 197 0
209 452 -197 0
-209 452 197 0
-209 -452 -197 0
210 -434 -211 0
210 434 -453 198 0
210 434 453 -198 0
-210 -434 211 0
-210 434 -453 -198 0
-210 434 453 198 0
211 -454 199 0
211 454 -199 0
-211 454 199 0
-211 -454 -199 0
212 433 -213 0
212 -433 -215 0
-212 -433 215 0
-212 433 213 0
213 -434 -214 0
213 434 -455 200 0
213 434 455 -200 0
-213 -434 214 0
-213 434 -455 -200 0
-213 434 455 200 0
214 -456 201 0
214 456 -201 0
-214 456 201 0
-214 -456 -201 0
215 -434 -216 0
215 434 -457 202 0
215 434 457 -202 0
-215 -434 216 0
-215 434 -457 -202 0
-215 434 457 202 0
216 -458 203 0
216 458 -203 0
-216 458 203 0
-216 -458 -203 0
217 432 -218 0
217 -432 -223 0
-217 -432 223 0
-217 432 218 0
218 433 -219 0
218 -433 -221 0
-218 -433 221 0
-218 433 219 0
219 -434 -220 0
219 434 -459 204 0
219 434 459 -204 0
-219 -434 220 0
-219 434 -459 -204 0
-219 434 459 204 0
220 -460 205 0
220 460 -205 0
-220 460 205 0
-220 -460 -205 0
221 -434 -222 0
221 434 -461 206 0
221 434 461 -206 0
-221 -434 222 0
-221 434 -461 -206 0
-221 434 461 206 0
222 -462 207 0
222 462 -207 0
-222 462 207 0
-222 -462 -207 0
223 433 -224 0
223 -433 -227 0
-223 -433 227 0
-223 433 224 0
224 434 -226 0
224 -434 464 -225 0
224 -434 -464 225 0
-224 434 226 0
-224 -434 -464 -225 0
-224 -434 464 225 0
-225 465 466 0
225 -465 0
225 -466 0
226 -463 208 0
226 463 -208 0
-226 463 208 0
-226 -463 -208 0
-227 465 466 0
-227 434 -465 -466 0
-227 -434 466 0
227 -434 -466 0
227 465 -466 0
227 434 -465 466 0
-228 -431 229 0
-228 431 248 0
228 -431 -229 0
228 431 -248 0
229 432 -230 0
229 -432 -243 0
-229 -432 243 0
-229 432 230 0
230 433 -231 0
230 -433 -241 0
-230 -433 241 0
-230 433 231 0
231 -434 -240 0
231 434 -443 232 0
231 434 443 -232 0
-231 -434 240 0
-231 434 -443 -232 0
-231 434 443 232 0
-232 444 233 0
232 -444 0
232 -233 0
-233 445 234 0
233 -445 0
233 -234 0
-234 446 235 0
234 -446 0
234 -235 0
-235 447 236 0
235 -447 0
235 -236 0
-236 448 237 0
236 -448 0
236 -237 0
-237 449 238 0
237 -449 0
237 -238 0
-238 450 239 0
238 -450 0
238 -239 0
-239 451 196 0
239 -451 0
239 -196 0
240 -444 233 0
240 444 -233 0
-240 444 233 0
-240 -444 -233 0
241 -434 -242 0
241 434 -445 234 0
241 434 445 -234 0
-241 -434 242 0
-241 434 -445 -234 0
-241 434 445 234 0
242 -446 235 0
242 446 -235 0
-242 446 235 0
-242 -446 -235 0
243 433 -244 0
243 -433 -246 0
-243 -433 246 0
-243 433 244 0
244 -434 -245 0
244 434 -447 236 0
244 434 447 -236 0
-244 -434 245 0
-244 434 -447 -236 0
-244 434 447 236 0
245 -448 237 0
245 448 -237 0
-245 448 237 0
-245 -448 -237 0
246 -434 -247 0
246 434 -449 238 0
246 434 449 -238 0
-246 -434 247 0
-246 434 -449 -238 0
-246 434 449 238 0
247 -450 239 0
247 450 -239 0
-247 450 239 0
-247 -450 -239 0
-248 432 249 0
-248 -432 261 0
248 -432 -261 0
248 432 -249 0
-249 433 258 0
-249 -433 250 0
249 -433 -250 0
249 433 -258 0
250 -434 -257 0
250 434 -437 251 0
250 434 437 -251 0
-250 -434 257 0
-250 434 -437 -251 0
-250 434 437 251 0
-251 438 252 0
251 -438 0
251 -252 0
-252 439 253 0
252 -439 0
252 -253 0
-253 440 254 0
253 -440 0
253 -254 0
-254 441 255 0
254 -441 0
254 -255 0
-255 442 256 0
255 -442 0
255 -256 0
-256 443 232 0
256 -443 0
256 -232 0
257 -438 252 0
257 438 -252 0
-257 438 252 0
-257 -438 -252 0
258 436 259 -260 0
258 -436 259 260 0
258 434 -436 259 0
258 436 -259 260 0
-258 -436 -259 0
-258 -434 -436 -260 0
-258 -259 -260 0
-258 436 259 260 0
259 434 -435 0
-259 -434 0
-259 435 0
-260 437 251 0
260 -437 0
260 -251 0
261 433 -262 0
261 -433 -264 0
-261 -433 264 0
-261 433 262 0
262 -434 -263 0
262 434 -439 253 0
262 434 439 -253 0
-262 -434 263 0
-262 434 -439 -253 0
-262 434 439 253 0
263 -440 254 0
263 440 -254 0
-263 440 254 0
-263 -440 -254 0
264 -434 -265 0
264 434 -441 255 0
264 434 441 -255 0
-264 -434 265 0
-264 434 -441 -255 0
-264 434 441 255 0
265 -442 256 0
265 442 -256 0
-265 442 256 0
-265 -442 -256 0
-266 404 18 180 0
-266 404 -18 -180 0
266 -404 0
266 18 -180 0
266 -18 180 0
-267 404 -268 0
-267 404 273 293 0
267 -404 0
267 268 -273 0
267 268 -293 0
-268 405 269 270 271 0
268 -405 0
268 -271 0
268 -270 0
268 -269 0
-269 406 407 0
269 -406 0
269 -407 0
-270 403 408 409 0
270 -403 0
270 -409 0
270 -408 0
-271 415 6 7 272 0
271 -415 0
271 -272 0
271 -7 0
271 -6 0
-272 9 32 12 0
272 -9 0
272 -32 0
272 -12 0
273 -430 -431 -285 0
273 -430 431 -274 0
-273 430 0
-273 -431 285 0
-273 431 274 0
274 432 -275 0
274 -432 -280 0
-274 -432 280 0
-274 432 275 0
275 433 -276 0
275 -433 -278 0
-275 -433 278 0
-275 433 276 0
276 -434 -277 0
276 434 -452 197 0
276 434 452 -197 0
-276 -434 277 0
-276 434 -452 -197 0
-276 434 452 197 0
277 -453 198 0
277 453 -198 0
-277 453 198 0
-277 -453 -198 0
278 -434 -279 0
278 434 -454 199 0
278 434 454 -199 0
-278 -434 279 0
-278 434 -454 -199 0
-278 434 454 199 0
279 -455 200 0
279 455 -200 0
-279 455 200 0
-279 -455 -200 0
280 433 -281 0
280 -433 -283 0
-280 -433 283 0
-280 433 281 0
281 -434 -282 0
281 434 -456 201 0
281 434 456 -201 0
-281 -434 282 0
-281 434 -456 -201 0
-281 434 456 201 0
282 -457 202 0
282 457 -202 0
-282 457 202 0
-282 -457 -202 0
283 -434 -284 0
283 434 -458 203 0
283 434 458 -203 0
-283 -434 284 0
-283 434 -458 -203 0
-283 434 458 203 0
284 -459 204 0
284 459 -204 0
-284 459 204 0
-284 -459 -204 0
285 432 -286 0
285 -432 -290 0
-285 -432 290 0
-285 432 286 0
286 433 -287 0
286 -433 -289 0
-286 -433 289 0
-286 433 287 0
287 -434 -288 0
287 434 -460 205 0
287 434 460 -205 0
-287 -434 288 0
-287 434 -460 -205 0
-287 434 460 205 0
288 -461 206 0
288 461 -206 0
-288 461 206 0
-288 -461 -206 0
289 -434 -226 0
289 434 -462 207 0
289 434 462 -207 0
-289 -434 226 0
-289 434 -462 -207 0
-289 434 462 207 0
-290 -433 -434 0
-290 433 291 0
-290 -433 466 0
290 433 -291 0
290 -433 434 -466 0
291 434 -292 0
291 -434 465 -466 0
291 -434 -465 466 0
-291 434 292 0
-291 -434 -465 -466 0
-291 -434 465 466 0
292 -464 225 0
292 464 -225 0
-292 464 225 0
-292 -464 -225 0
293 430 431 -305 0
293 430 -431 -294 0
-293 -430 0
-293 -431 294 0
-293 431 305 0
294 432 -295 0
294 -432 -300 0
-294 -432 300 0
-294 432 295 0
295 433 -296 0
295 -433 -298 0
-295 -433 298 0
-295 433 296 0
296 -434 -297 0
296 434 -444 233 0
296 434 444 -233 0
-296 -434 297 0
-296 434 -444 -233 0
-296 434 444 233 0
297 -445 234 0
297 445 -234 0
-297 445 234 0
-297 -445 -234 0
298 -434 -299 0
298 434 -446 235 0
298 434 446 -235 0
-298 -434 299 0
-298 434 -446 -235 0
-298 434 446 235 0
299 -447 236 0
299 447 -236 0
-299 447 236 0
-299 -447 -236 0
300 433 -301 0
300 -433 -303 0
-300 -433 303 0
-300 433 301 0
301 -434 -302 0
301 434 -448 237 0
301 434 448 -237 0
-301 -434 302 0
-301 434 -448 -237 0
-301 434 448 237 0
302 -449 238 0
302 449 -238 0
-302 449 238 0
-302 -449 -238 0
303 -434 -304 0
303 434 -450 239 0
303 434 450 -239 0
-303 -434 304 0
-303 434 -450 -239 0
-303 434 450 239 0
304 -451 196 0
304 451 -196 0
-304 451 196 0
-304 -451 -196 0
305 -432 -306 0
305 432 311 -314 0
-305 432 314 0
-305 -432 306 0
-305 432 -311 0
306 433 -307 0
306 -433 -309 0
-306 -433 309 0
-306 433 307 0
307 -434 -308 0
307 434 -440 254 0
307 434 440 -254 0
-307 -434 308 0
-307 434 -440 -254 0
-307 434 440 254 0
308 -441 255 0
308 441 -255 0
-308 441 255 0
-308 -441 -255 0
309 -434 -310 0
309 434 -442 256 0
309 434 442 -256 0
-309 -434 310 0
-309 434 -442 -256 0
-309 434 442 256 0
310 -443 232 0
310 443 -232 0
-310 443 232 0
-310 -443 -232 0
311 -433 312 0
-311 433 0
-311 -312 0
312 -434 -313 0
312 434 -438 252 0
312 434 438 -252 0
-312 -434 313 0
-312 434 -438 -252 0
-312 434 438 252 0
313 -439 253 0
313 439 -253 0
-313 439 253 0
-313 -439 -253 0
-314 433 -434 315 0
-314 433 434 316 0
314 -433 0
314 -434 -315 0
314 434 -316 0
315 -437 251 0
315 437 -251 0
-315 437 251 0
-315 -437 -251 0
316 -436 260 0
316 436 -260 0
-316 436 260 0
-316 -436 -260 0
-317 318 -337 -338 352 0
-317 318 337 338 352 0
317 -352 0
317 337 -338 0
317 -318 0
317 -337 338 0
318 -319 320 0
318 319 -320 0
-318 319 320 0
-318 -319 -320 0
-319 405 19 175 0
-319 405 -19 -175 0
319 -405 0
319 19 -175 0
319 -19 175 0
-320 405 -321 0
-320 405 323 330 0
320 -405 0
320 321 -323 0
320 321 -330 0
-321 322 269 31 271 0
321 -271 0
321 -322 0
321 -31 0
321 -269 0
-322 403 404 0
322 -403 0
322 -404 0
323 -430 -431 -327 0
323 -430 431 -324 0
-323 430 0
-323 -431 327 0
-323 431 324 0
324 432 -325 0
324 -432 -326 0
-324 -432 326 0
-324 432 325 0
325 433 -210 0
325 -433 -213 0
-325 -433 213 0
-325 433 210 0
326 433 -215 0
326 -433 -219 0
-326 -433 219 0
-326 433 215 0
327 432 -328 0
327 -432 -329 0
-327 -432 329 0
-327 432 328 0
328 433 -221 0
328 -433 -224 0
-328 -433 224 0
-328 433 221 0
329 433 -227 0
-329 -433 0
-329 227 0
330 430 -431 -334 0
330 430 431 -331 0
-330 -430 0
-330 -431 334 0
-330 431 331 0
331 432 -332 0
331 -432 -333 0
-331 -432 333 0
-331 432 332 0
332 433 -250 0
332 -433 -262 0
-332 -433 262 0
-332 433 250 0
333 -433 -231 0
333 433 -264 0
-333 433 264 0
-333 -433 231 0
334 432 -335 0
334 -432 -336 0
-334 -432 336 0
-334 432 335 0
335 433 -241 0
335 -433 -244 0
-335 -433 244 0
-335 433 241 0
336 -433 -195 0
336 433 -246 0
-336 433 246 0
-336 -433 195 0
-337 406 20 170 0
-337 406 -20 -170 0
337 -406 0
337 20 -170 0
337 -20 170 0
-338 406 -29 0
-338 406 339 345 0
338 -406 0
338 29 -339 0
338 29 -345 0
339 -430 431 -340 0
339 -430 -431 -343 0
-339 430 0
-339 -431 343 0
-339 431 340 0
340 432 -341 0
340 -432 -342 0
-340 -432 342 0
-340 432 341 0
341 433 -278 0
341 -433 -281 0
-341 -433 281 0
-341 433 278 0
342 433 -283 0
342 -433 -287 0
-342 -433 287 0
-342 433 283 0
-343 432 344 0
-343 -432 63 0
343 -432 -63 0
343 432 -344 0
344 433 -289 0
344 -433 -291 0
-344 -433 291 0
-344 433 289 0
345 430 431 -349 0
345 430 -346 -349 0
-345 -430 0
-345 349 0
-345 -431 346 0
346 432 -347 0
346 -432 -348 0
-346 -432 348 0
-346 432 347 0
347 433 -298 0
347 -433 -301 0
-347 -433 301 0
-347 433 298 0
348 -433 -276 0
348 433 -303 0
-348 433 303 0
-348 -433 276 0
-349 431 -432 351 0
-349 431 432 350 0
349 -431 0
349 -432 -351 0
349 432 -350 0
-350 433 312 0
-350 -433 307 0
350 -433 -307 0
350 433 -312 0
351 -433 -296 0
351 433 -309 0
-351 433 309 0
-351 -433 296 0
-352 353 -361 -362 368 0
-352 353 361 362 368 0
352 -368 0
352 361 -362 0
352 -353 0
352 -361 362 0
353 -354 355 0
353 354 -355 0
-353 354 355 0
-353 -354 -355 0
-354 407 21 165 0
-354 407 -21 -165 0
354 -407 0
354 21 -165 0
354 -21 165 0
-355 407 -29 0
-355 407 356 0
355 -407 0
355 29 -356 0
-356 -430 357 0
-356 430 360 0
-356 430 -359 0
356 -430 -357 0
356 430 359 -360 0
-357 -431 -432 0
-357 431 358 0
-357 -431 223 0
357 431 -358 0
357 -431 432 -223 0
358 432 -212 0
358 -432 -218 0
-358 -432 218 0
-358 432 212 0
359 -431 432 243 0
359 -431 -432 194 0
-359 431 0
-359 -432 -194 0
-359 432 -243 0
-360 431 -432 230 0
-360 431 432 261 0
360 -431 0
360 -432 -230 0
360 432 -261 0
-361 408 22 160 0
-361 408 -22 -160 0
361 -408 0
361 22 -160 0
361 -22 160 0
-362 408 -29 0
-362 408 363 0
362 -408 0
362 29 -363 0
-363 -430 364 0
-363 430 367 0
-363 430 -366 0
363 -430 -364 0
363 430 366 -367 0
-364 -431 -432 0
-364 431 365 0
-364 -431 290 0
364 431 -365 0
364 -431 432 -290 0
365 432 -280 0
365 -432 -286 0
-365 -432 286 0
-365 432 280 0
366 -431 432 300 0
366 -431 -432 275 0
-366 431 0
-366 -432 -275 0
-366 432 -300 0
-367 431 -432 295 0
-367 431 432 306 0
367 -431 0
367 -432 -295 0
367 432 -306 0
-368 369 -377 -378 384 0
-368 369 377 378 384 0
368 -384 0
368 377 -378 0
368 -369 0
368 -377 378 0
369 -370 371 0
369 370 -371 0
-369 370 371 0
-369 -370 -371 0
-370 409 23 155 0
-370 409 -23 -155 0
370 -409 0
370 23 -155 0
370 -23 155 0
-371 409 -29 0
-371 409 372 0
371 -409 0
371 29 -372 0
-372 -430 373 0
-372 430 376 0
-372 430 -375 0
372 -430 -373 0
372 430 375 -376 0
-373 -431 -432 0
-373 431 374 0
-373 -431 329 0
373 431 -374 0
373 -431 432 -329 0
374 432 -326 0
374 -432 -328 0
-374 -432 328 0
-374 432 326 0
375 -431 432 336 0
375 -431 -432 325 0
-375 431 0
-375 -432 -325 0
-375 432 -336 0
-376 431 -432 335 0
-376 431 432 333 0
376 -431 0
376 -432 -335 0
376 432 -333 0
-377 410 24 150 0
-377 410 -24 -150 0
377 -410 0
377 24 -150 0
377 -24 150 0
-378 410 -29 0
-378 410 379 0
378 -410 0
378 29 -379 0
-379 -430 380 0
-379 430 383 0
-379 430 -382 0
379 -430 -380 0
379 430 382 -383 0
-380 431 381 0
-380 -431 48 0
380 -431 -48 0
380 431 -381 0
381 432 -342 0
381 -432 -344 0
-381 -432 344 0
-381 432 342 0
382 -431 432 348 0
382 -431 -432 341 0
-382 431 0
-382 -432 -341 0
-382 432 -348 0
-383 431 -432 347 0
-383 431 432 351 0
383 -431 0
383 -432 -347 0
383 432 -351 0
-384 385 -390 -391 394 0
-384 385 390 391 394 0
384 -394 0
384 390 -391 0
384 -385 0
384 -390 391 0
385 -386 387 0
385 386 -387 0
-385 386 387 0
-385 -386 -387 0
-386 411 25 145 0
-386 411 -25 -145 0
386 -411 0
386 25 -145 0
386 -25 145 0
-387 411 -29 0
-387 411 388 389 0
387 -411 0
387 29 -388 0
387 29 -389 0
388 -430 431 -217 0
-388 430 0
-388 -431 0
-388 217 0
389 430 431 -229 0
389 430 -431 -193 0
-389 -430 0
-389 -431 193 0
-389 431 229 0
-390 412 26 140 0
-390 412 -26 -140 0
390 -412 0
390 26 -140 0
390 -26 140 0
-391 412 -29 0
-391 412 392 393 0
391 -412 0
391 29 -392 0
391 29 -393 0
392 -430 431 -285 0
-392 430 0
-392 -431 0
-392 285 0
393 430 431 -294 0
393 430 -431 -274 0
-393 -430 0
-393 -431 274 0
-393 431 294 0
-394 -395 -396 399 400 0
-394 395 396 399 400 0
-394 -395 -396 -399 -400 0
-394 395 396 -399 -400 0
394 -395 396 0
394 395 -396 0
394 -399 400 0
394 399 -400 0
-395 413 27 135 0
-395 413 -27 -135 0
395 -413 0
395 27 -135 0
395 -27 135 0
-396 413 -29 0
-396 413 397 398 0
396 -413 0
396 29 -397 0
396 29 -398 0
397 -430 431 -327 0
-397 430 0
-397 -431 0
-397 327 0
398 430 431 -334 0
398 430 -431 -324 0
-398 -430 0
-398 -431 324 0
-398 431 334 0
-399 414 28 130 0
-399 414 -28 -130 0
399 -414 0
399 28 -130 0
399 -28 130 0
-400 414 -29 0
-400 414 401 402 0
400 -414 0
400 29 -401 0
400 29 -402 0
401 -430 431 -343 0
-401 430 0
-401 343 0
-401 -431 0
402 430 431 -346 0
402 430 -431 -340 0
-402 -430 0
-402 -431 340 0
-402 431 346 0
-467 0
2 0

